p edges 60 774
e 1 4
e 1 6
e 1 9
e 1 12
e 1 20
e 1 21
e 1 22
e 1 24
e 1 25
e 1 28
e 1 29
e 1 30
e 1 33
e 1 34
e 1 36
e 1 38
e 1 40
e 1 42
e 1 45
e 1 51
e 1 52
e 1 53
e 1 54
e 1 58
e 2 5
e 2 6
e 2 8
e 2 9
e 2 14
e 2 16
e 2 18
e 2 20
e 2 23
e 2 24
e 2 25
e 2 26
e 2 28
e 2 30
e 2 33
e 2 34
e 2 36
e 2 37
e 2 38
e 2 39
e 2 40
e 2 41
e 2 45
e 2 48
e 2 49
e 2 52
e 2 53
e 2 54
e 3 4
e 3 7
e 3 11
e 3 12
e 3 13
e 3 17
e 3 22
e 3 27
e 3 29
e 3 31
e 3 35
e 3 42
e 3 43
e 3 44
e 3 46
e 3 47
e 3 50
e 3 51
e 3 56
e 3 58
e 4 7
e 4 11
e 4 12
e 4 13
e 4 20
e 4 21
e 4 22
e 4 24
e 4 25
e 4 27
e 4 28
e 4 29
e 4 30
e 4 33
e 4 34
e 4 38
e 4 40
e 4 42
e 4 43
e 4 44
e 4 45
e 4 47
e 4 50
e 4 51
e 4 53
e 4 54
e 4 56
e 4 58
e 5 6
e 5 8
e 5 9
e 5 14
e 5 16
e 5 18
e 5 20
e 5 21
e 5 23
e 5 24
e 5 25
e 5 26
e 5 28
e 5 30
e 5 33
e 5 34
e 5 36
e 5 37
e 5 38
e 5 39
e 5 40
e 5 41
e 5 42
e 5 45
e 5 48
e 5 49
e 5 52
e 5 53
e 5 54
e 6 8
e 6 9
e 6 14
e 6 15
e 6 16
e 6 18
e 6 20
e 6 21
e 6 23
e 6 24
e 6 25
e 6 26
e 6 28
e 6 30
e 6 33
e 6 34
e 6 36
e 6 37
e 6 38
e 6 39
e 6 40
e 6 41
e 6 42
e 6 45
e 6 48
e 6 49
e 6 52
e 6 53
e 6 54
e 6 57
e 6 59
e 7 11
e 7 12
e 7 13
e 7 17
e 7 19
e 7 22
e 7 27
e 7 29
e 7 31
e 7 32
e 7 35
e 7 43
e 7 44
e 7 46
e 7 47
e 7 50
e 7 51
e 7 55
e 7 56
e 7 58
e 8 9
e 8 14
e 8 15
e 8 16
e 8 18
e 8 23
e 8 26
e 8 28
e 8 34
e 8 36
e 8 37
e 8 38
e 8 39
e 8 41
e 8 45
e 8 48
e 8 49
e 8 52
e 8 53
e 8 57
e 8 59
e 9 14
e 9 16
e 9 18
e 9 20
e 9 21
e 9 23
e 9 24
e 9 25
e 9 26
e 9 28
e 9 30
e 9 33
e 9 34
e 9 36
e 9 37
e 9 38
e 9 39
e 9 40
e 9 41
e 9 42
e 9 45
e 9 48
e 9 49
e 9 52
e 9 53
e 9 54
e 9 57
e 9 59
e 10 15
e 10 16
e 10 17
e 10 18
e 10 19
e 10 23
e 10 31
e 10 32
e 10 35
e 10 37
e 10 39
e 10 46
e 10 55
e 10 57
e 10 59
e 10 60
e 11 12
e 11 13
e 11 17
e 11 22
e 11 27
e 11 29
e 11 31
e 11 35
e 11 42
e 11 43
e 11 44
e 11 46
e 11 47
e 11 50
e 11 51
e 11 56
e 11 58
e 12 13
e 12 20
e 12 21
e 12 22
e 12 24
e 12 25
e 12 27
e 12 29
e 12 30
e 12 33
e 12 34
e 12 38
e 12 40
e 12 42
e 12 43
e 12 44
e 12 45
e 12 47
e 12 50
e 12 51
e 12 53
e 12 54
e 12 56
e 12 58
e 13 17
e 13 21
e 13 22
e 13 24
e 13 27
e 13 29
e 13 31
e 13 33
e 13 34
e 13 35
e 13 42
e 13 43
e 13 44
e 13 45
e 13 46
e 13 47
e 13 50
e 13 51
e 13 56
e 13 58
e 14 15
e 14 16
e 14 18
e 14 20
e 14 23
e 14 24
e 14 25
e 14 26
e 14 28
e 14 30
e 14 33
e 14 36
e 14 37
e 14 38
e 14 39
e 14 40
e 14 41
e 14 48
e 14 49
e 14 52
e 14 53
e 14 54
e 14 57
e 14 59
e 15 16
e 15 17
e 15 18
e 15 19
e 15 23
e 15 31
e 15 32
e 15 35
e 15 37
e 15 39
e 15 46
e 15 48
e 15 55
e 15 57
e 15 59
e 15 60
e 16 18
e 16 23
e 16 26
e 16 31
e 16 36
e 16 37
e 16 39
e 16 41
e 16 48
e 16 49
e 16 52
e 16 57
e 16 59
e 16 60
e 17 19
e 17 27
e 17 31
e 17 32
e 17 35
e 17 43
e 17 44
e 17 46
e 17 47
e 17 50
e 17 55
e 17 56
e 17 57
e 17 58
e 17 59
e 17 60
e 18 19
e 18 23
e 18 26
e 18 36
e 18 37
e 18 39
e 18 41
e 18 48
e 18 49
e 18 52
e 18 57
e 18 59
e 18 60
e 19 23
e 19 31
e 19 32
e 19 35
e 19 37
e 19 44
e 19 46
e 19 47
e 19 50
e 19 55
e 19 56
e 19 57
e 19 59
e 19 60
e 20 21
e 20 24
e 20 25
e 20 26
e 20 28
e 20 29
e 20 30
e 20 33
e 20 34
e 20 36
e 20 38
e 20 40
e 20 42
e 20 45
e 20 48
e 20 49
e 20 51
e 20 52
e 20 53
e 20 54
e 21 22
e 21 24
e 21 25
e 21 28
e 21 29
e 21 30
e 21 33
e 21 34
e 21 36
e 21 38
e 21 40
e 21 42
e 21 44
e 21 45
e 21 49
e 21 51
e 21 52
e 21 53
e 21 54
e 21 58
e 22 24
e 22 27
e 22 29
e 22 30
e 22 33
e 22 34
e 22 42
e 22 43
e 22 44
e 22 45
e 22 47
e 22 50
e 22 51
e 22 56
e 22 58
e 23 24
e 23 25
e 23 26
e 23 28
e 23 34
e 23 36
e 23 37
e 23 38
e 23 39
e 23 41
e 23 45
e 23 48
e 23 49
e 23 52
e 23 53
e 23 54
e 23 57
e 23 59
e 24 25
e 24 26
e 24 28
e 24 29
e 24 30
e 24 33
e 24 34
e 24 36
e 24 38
e 24 39
e 24 40
e 24 41
e 24 42
e 24 44
e 24 45
e 24 48
e 24 49
e 24 51
e 24 52
e 24 53
e 24 54
e 24 58
e 25 26
e 25 28
e 25 29
e 25 30
e 25 33
e 25 34
e 25 36
e 25 38
e 25 39
e 25 40
e 25 41
e 25 42
e 25 45
e 25 49
e 25 51
e 25 52
e 25 53
e 25 54
e 26 28
e 26 30
e 26 33
e 26 34
e 26 36
e 26 37
e 26 38
e 26 39
e 26 40
e 26 41
e 26 45
e 26 48
e 26 49
e 26 52
e 26 53
e 26 54
e 26 57
e 27 29
e 27 31
e 27 35
e 27 42
e 27 43
e 27 44
e 27 46
e 27 47
e 27 50
e 27 51
e 27 56
e 27 58
e 28 30
e 28 33
e 28 34
e 28 36
e 28 38
e 28 39
e 28 40
e 28 41
e 28 42
e 28 45
e 28 48
e 28 49
e 28 52
e 28 53
e 28 54
e 29 30
e 29 33
e 29 34
e 29 38
e 29 40
e 29 42
e 29 43
e 29 44
e 29 45
e 29 47
e 29 50
e 29 51
e 29 53
e 29 54
e 29 56
e 29 58
e 30 33
e 30 34
e 30 36
e 30 38
e 30 40
e 30 42
e 30 45
e 30 48
e 30 49
e 30 51
e 30 52
e 30 53
e 30 54
e 30 58
e 31 32
e 31 35
e 31 37
e 31 39
e 31 44
e 31 46
e 31 47
e 31 50
e 31 55
e 31 56
e 31 57
e 31 59
e 31 60
e 32 35
e 32 46
e 32 50
e 32 55
e 32 56
e 32 59
e 32 60
e 33 34
e 33 36
e 33 38
e 33 40
e 33 42
e 33 44
e 33 45
e 33 49
e 33 51
e 33 52
e 33 53
e 33 54
e 33 58
e 34 36
e 34 38
e 34 40
e 34 41
e 34 42
e 34 44
e 34 45
e 34 49
e 34 51
e 34 52
e 34 53
e 34 54
e 34 58
e 35 44
e 35 46
e 35 47
e 35 50
e 35 55
e 35 56
e 35 57
e 35 59
e 35 60
e 36 37
e 36 38
e 36 39
e 36 40
e 36 41
e 36 42
e 36 45
e 36 48
e 36 49
e 36 52
e 36 53
e 36 54
e 36 57
e 37 39
e 37 41
e 37 48
e 37 49
e 37 52
e 37 57
e 37 59
e 37 60
e 38 39
e 38 40
e 38 41
e 38 42
e 38 45
e 38 48
e 38 49
e 38 51
e 38 52
e 38 53
e 38 54
e 39 41
e 39 48
e 39 49
e 39 52
e 39 53
e 39 54
e 39 57
e 39 59
e 39 60
e 40 42
e 40 45
e 40 49
e 40 51
e 40 52
e 40 53
e 40 54
e 41 45
e 41 48
e 41 49
e 41 52
e 41 53
e 41 54
e 42 43
e 42 44
e 42 45
e 42 49
e 42 50
e 42 51
e 42 52
e 42 53
e 42 54
e 42 58
e 43 44
e 43 46
e 43 47
e 43 50
e 43 51
e 43 56
e 43 58
e 44 45
e 44 46
e 44 47
e 44 50
e 44 51
e 44 55
e 44 56
e 44 58
e 45 49
e 45 51
e 45 52
e 45 53
e 45 54
e 45 58
e 46 47
e 46 50
e 46 55
e 46 56
e 46 57
e 46 58
e 46 59
e 46 60
e 47 50
e 47 51
e 47 55
e 47 56
e 47 58
e 48 49
e 48 52
e 48 53
e 48 54
e 48 57
e 48 59
e 49 52
e 49 53
e 49 54
e 49 57
e 50 51
e 50 55
e 50 56
e 50 58
e 51 53
e 51 54
e 51 56
e 51 58
e 52 53
e 52 54
e 52 57
e 52 59
e 53 54
e 55 56
e 55 57
e 55 59
e 55 60
e 56 58
e 57 59
e 57 60
e 59 60
w 1 99
w 2 69
w 3 69
w 4 105
w 5 11
w 6 69
w 7 71
w 8 64
w 9 63
w 10 125
w 11 58
w 12 225
w 13 48
w 14 5
w 15 76
w 16 231
w 17 14
w 18 207
w 19 94
w 20 25
w 21 112
w 22 128
w 23 51
w 24 35
w 25 144
w 26 69
w 27 107
w 28 104
w 29 31
w 30 211
w 31 93
w 32 529
w 33 45
w 34 113
w 35 16
w 36 13
w 37 9
w 38 11
w 39 104
w 40 176
w 41 419
w 42 3
w 43 157
w 44 311
w 45 59
w 46 16
w 47 240
w 48 90
w 49 49
w 50 47
w 51 48
w 52 104
w 53 11
w 54 55
w 55 235
w 56 22
w 57 419
w 58 145
w 59 16
w 60 16
n 1 x796
n 2 x998
n 3 x1517
n 4 x1715
n 5 x2546
n 6 x3796
n 7 x4586
n 8 x4733
n 9 x4888
n 10 x5998
n 11 x6986
n 12 x7178
n 13 x7900
n 14 x8200
n 15 x9202
n 16 x9879
n 17 x10130
n 18 x11022
n 19 x11886
n 20 x12389
n 21 x12684
n 22 x12781
n 23 x13048
n 24 x13115
n 25 x13821
n 26 x14834
n 27 x15494
n 28 x16697
n 29 x16716
n 30 x17299
n 31 x17446
n 32 x18183
n 33 x18453
n 34 x18663
n 35 x19247
n 36 x19537
n 37 x19670
n 38 x20042
n 39 x21109
n 40 x21795
n 41 x22023
n 42 x23113
n 43 x23659
n 44 x24546
n 45 x24868
n 46 x25340
n 47 x25773
n 48 x25880
n 49 x26046
n 50 x26070
n 51 x26857
n 52 x27179
n 53 x27566
n 54 x27895
n 55 x28178
n 56 x28513
n 57 x29613
n 58 x29761
n 59 x29846
n 60 x30292
o 1 796
o 2 998
o 3 1517
o 4 1715
o 5 2546
o 6 3796
o 7 4586
o 8 4733
o 9 4888
o 10 5998
o 11 6986
o 12 7178
o 13 7900
o 14 8200
o 15 9202
o 16 9879
o 17 10130
o 18 11022
o 19 11886
o 20 12389
o 21 12684
o 22 12781
o 23 13048
o 24 13115
o 25 13821
o 26 14834
o 27 15494
o 28 16697
o 29 16716
o 30 17299
o 31 17446
o 32 18183
o 33 18453
o 34 18663
o 35 19247
o 36 19537
o 37 19670
o 38 20042
o 39 21109
o 40 21795
o 41 22023
o 42 23113
o 43 23659
o 44 24546
o 45 24868
o 46 25340
o 47 25773
o 48 25880
o 49 26046
o 50 26070
o 51 26857
o 52 27179
o 53 27566
o 54 27895
o 55 28178
o 56 28513
o 57 29613
o 58 29761
o 59 29846
o 60 30292
